(set-info :source |printed by MathSAT|)
(declare-fun call__main_.call_controleur.ite.next () Bool)
(declare-fun call__main_.call_controleur.diff () Int)
(declare-fun call_Sofar.Sofar () Bool)
(declare-fun call__main_.call_hypothese.flby2 () Int)
(declare-fun avance0 () Bool)
(declare-fun call__main_.retard0 () Bool)
(declare-fun call__main_.diff1.next () Int)
(declare-fun call__main_.nB1 () Int)
(declare-fun diff0.next () Int)
(declare-fun call_Sofar.flby () Bool)
(declare-fun call__main_.flby3.next () Int)
(declare-fun call__main_.call_controleur2.avance.next () Bool)
(declare-fun call__main_.nB0.next () Int)
(declare-fun call__main_._H1_ () Bool)
(declare-fun call__main_.avance1 () Bool)
(declare-fun call__main_.call_hypothese.flby2.next () Int)
(declare-fun call__main_.nB0 () Int)
(declare-fun call__main_.call_controleur2.diff () Int)
(declare-fun call_Sofar.Sofar.next () Bool)
(declare-fun retard1.next () Bool)
(declare-fun call__main_.call_hypothese.ite2.next () Bool)
(declare-fun retard1 () Bool)
(declare-fun call__main_.nB1.next () Int)
(declare-fun call__main_.call_hypothese2.ite2.next () Bool)
(declare-fun nS () Int)
(declare-fun call__main_._H1_.next () Bool)
(declare-fun call__main_.call_controleur2.flby2 () Bool)
(declare-fun retard0 () Bool)
(declare-fun nB0.next () Int)
(declare-fun call__main_.ite3.next () Int)
(declare-fun call__main_.call_hypothese2.ite4.next () Int)
(declare-fun call__main_.call_controleur.diff.next () Int)
(declare-fun diff1 () Int)
(declare-fun call__main_.call_controleur2.flby2.next () Bool)
(declare-fun call__main_.avance0 () Bool)
(declare-fun call__main_.call_hypothese.ok () Bool)
(declare-fun retard0.next () Bool)
(declare-fun call__main_.call_hypothese2.ok.next () Bool)
(declare-fun param__S_.next () Bool)
(declare-fun call__main_.flby () Int)
(declare-fun call__main_.call_controleur2.ite.next () Bool)
(declare-fun call__main_.call_hypothese.ite4.next () Int)
(declare-fun call__main_.call_controleur2.flby () Bool)
(declare-fun nB1 () Int)
(declare-fun call__main_.retard1.next () Bool)
(declare-fun avance0.next () Bool)
(declare-fun call__main_.call_controleur.flby2 () Bool)
(declare-fun call__main_.call_controleur2.retard.next () Bool)
(declare-fun call__main_.call_hypothese2.c.next () Int)
(declare-fun call__main_.call_controleur.avance.next () Bool)
(declare-fun call__main_.ast () Bool)
(declare-fun call__main_.call_hypothese2.flby () Bool)
(declare-fun call_Sofar.flby.next () Bool)
(declare-fun call__main_.diff1 () Int)
(declare-fun call__main_.flby3 () Int)
(declare-fun call__main_.call_hypothese2.ok () Bool)
(declare-fun call__main_.call_hypothese2.c () Int)
(declare-fun call__main_.call_hypothese.ite3.next () Int)
(declare-fun param__B1_.next () Bool)
(declare-fun call__main_.call_hypothese.flby () Bool)
(declare-fun ast () Bool)
(declare-fun call__main_.nS () Int)
(declare-fun call__main_.call_controleur.flby2.next () Bool)
(declare-fun call__main_.call_controleur2.diff.next () Int)
(declare-fun call__main_.flby2 () Int)
(declare-fun call__main_.diff0.next () Int)
(declare-fun call__main_.ite.next () Int)
(declare-fun call__main_.retard0.next () Bool)
(declare-fun call__main_.call_controleur.flby () Bool)
(declare-fun call__main_.call_hypothese2.ite.next () Bool)
(declare-fun call__main_.avance1.next () Bool)
(declare-fun call__main_._H0_.next () Bool)
(declare-fun call__main_.retard1 () Bool)
(declare-fun call__main_.call_hypothese2.ite3.next () Int)
(declare-fun nB1.next () Int)
(declare-fun call__main_.call_hypothese.c.next () Int)
(declare-fun call__main_.call_controleur2.avance () Bool)
(declare-fun call__main_.call_controleur.ite2.next () Bool)
(declare-fun ast.next () Bool)
(declare-fun call__main_.call_hypothese.flby.next () Bool)
(declare-fun nS.next () Int)
(declare-fun flby.next () Bool)
(declare-fun call__main_.call_hypothese.ite.next () Bool)
(declare-fun call__main_.call_controleur2.retard () Bool)
(declare-fun call__main_.avance0.next () Bool)
(declare-fun call__main_.call_hypothese2.flby2.next () Int)
(declare-fun call__main_.call_controleur.avance () Bool)
(declare-fun _OK_.next () Bool)
(declare-fun call__main_._H0_ () Bool)
(declare-fun call__main_.flby.next () Int)
(declare-fun call__main_.flby2.next () Int)
(declare-fun diff1.next () Int)
(declare-fun param__B0_.next () Bool)
(declare-fun call__main_.call_hypothese.c () Int)
(declare-fun call__main_.call_controleur.flby.next () Bool)
(declare-fun flby () Bool)
(declare-fun nB0 () Int)
(declare-fun call__main_.ast.next () Bool)
(declare-fun avance1 () Bool)
(declare-fun call__main_.ite2.next () Int)
(declare-fun avance1.next () Bool)
(declare-fun call__main_.call_hypothese2.flby2 () Int)
(declare-fun call__main_.call_controleur.retard.next () Bool)
(declare-fun call__main_.nS.next () Int)
(declare-fun call__main_.call_hypothese2.flby.next () Bool)
(declare-fun _OK_ () Bool)
(declare-fun call__main_.call_controleur.retard () Bool)
(declare-fun call__main_.call_controleur2.flby.next () Bool)
(declare-fun call__main_.call_hypothese.ok.next () Bool)
(declare-fun call__main_.call_controleur2.ite2.next () Bool)
(declare-fun diff0 () Int)
(declare-fun call__main_.diff0 () Int)
(define-fun .def_905 () Bool (= call_Sofar.Sofar.next call_Sofar.flby.next))
(define-fun .def_903 () Bool (= call__main_.call_controleur2.flby2.next call__main_.call_controleur2.retard.next))
(define-fun .def_901 () Bool (= call__main_.call_controleur2.flby.next call__main_.call_controleur2.avance.next))
(define-fun .def_894 () Int (* (- 1) call__main_.nB1.next))
(define-fun .def_897 () Int (+ .def_894 call__main_.nS.next))
(define-fun .def_898 () Int (+ call__main_.call_controleur2.diff.next .def_897))
(define-fun .def_899 () Bool (= .def_898 0))
(define-fun .def_892 () Bool (= call__main_.call_controleur.flby2.next call__main_.call_controleur.retard.next))
(define-fun .def_890 () Bool (= call__main_.call_controleur.flby.next call__main_.call_controleur.avance.next))
(define-fun .def_883 () Int (* (- 1) call__main_.nB0.next))
(define-fun .def_886 () Int (+ .def_883 call__main_.nS.next))
(define-fun .def_887 () Int (+ call__main_.call_controleur.diff.next .def_886))
(define-fun .def_888 () Bool (= .def_887 0))
(define-fun .def_881 () Bool (= call__main_.call_hypothese2.flby2.next call__main_.call_hypothese2.c.next))
(define-fun .def_878 () Bool (= call__main_.call_hypothese2.flby.next call__main_.call_hypothese2.ok.next))
(define-fun .def_876 () Bool (= call__main_.call_hypothese.flby2.next call__main_.call_hypothese.c.next))
(define-fun .def_873 () Bool (= call__main_.call_hypothese.flby.next call__main_.call_hypothese.ok.next))
(define-fun .def_871 () Bool (= call__main_._H1_.next call__main_.call_hypothese2.ok.next))
(define-fun .def_868 () Bool (= call__main_._H0_.next call__main_.call_hypothese.ok.next))
(define-fun .def_865 () Bool (= call__main_.retard1.next call__main_.call_controleur2.retard.next))
(define-fun .def_862 () Bool (= call__main_.retard0.next call__main_.call_controleur.retard.next))
(define-fun .def_859 () Bool (= call__main_.avance1.next call__main_.call_controleur2.avance.next))
(define-fun .def_856 () Bool (= call__main_.avance0.next call__main_.call_controleur.avance.next))
(define-fun .def_853 () Bool (= call__main_.call_controleur2.diff.next call__main_.diff1.next))
(define-fun .def_851 () Bool (= call__main_.call_controleur.diff.next call__main_.diff0.next))
(define-fun .def_849 () Bool (= call__main_.flby3.next call__main_.nS.next))
(define-fun .def_847 () Bool (= call__main_.flby2.next call__main_.nB1.next))
(define-fun .def_845 () Bool (= call__main_.flby.next call__main_.nB0.next))
(define-fun .def_842 () Bool (and call__main_._H0_.next call__main_._H1_.next))
(define-fun .def_843 () Bool (= call__main_.ast.next .def_842))
(define-fun .def_838 () Bool (= ast.next call__main_.ast.next))
(define-fun .def_835 () Bool (= retard1.next call__main_.retard1.next))
(define-fun .def_831 () Bool (= retard0.next call__main_.retard0.next))
(define-fun .def_827 () Bool (= call__main_.avance1.next avance1.next))
(define-fun .def_824 () Bool (= call__main_.avance0.next avance0.next))
(define-fun .def_821 () Bool (= diff1.next call__main_.diff1.next))
(define-fun .def_817 () Bool (= diff0.next call__main_.diff0.next))
(define-fun .def_813 () Bool (= nS.next call__main_.nS.next))
(define-fun .def_809 () Bool (= nB1.next call__main_.nB1.next))
(define-fun .def_805 () Bool (= nB0.next call__main_.nB0.next))
(define-fun .def_802 () Bool (= flby.next _OK_.next))
(define-fun .def_806 () Bool (and .def_802 .def_805))
(define-fun .def_810 () Bool (and .def_806 .def_809))
(define-fun .def_814 () Bool (and .def_810 .def_813))
(define-fun .def_818 () Bool (and .def_814 .def_817))
(define-fun .def_822 () Bool (and .def_818 .def_821))
(define-fun .def_825 () Bool (and .def_822 .def_824))
(define-fun .def_828 () Bool (and .def_825 .def_827))
(define-fun .def_832 () Bool (and .def_828 .def_831))
(define-fun .def_836 () Bool (and .def_832 .def_835))
(define-fun .def_839 () Bool (and .def_836 .def_838))
(define-fun .def_844 () Bool (and .def_839 .def_843))
(define-fun .def_846 () Bool (and .def_844 .def_845))
(define-fun .def_848 () Bool (and .def_846 .def_847))
(define-fun .def_850 () Bool (and .def_848 .def_849))
(define-fun .def_852 () Bool (and .def_850 .def_851))
(define-fun .def_854 () Bool (and .def_852 .def_853))
(define-fun .def_857 () Bool (and .def_854 .def_856))
(define-fun .def_860 () Bool (and .def_857 .def_859))
(define-fun .def_863 () Bool (and .def_860 .def_862))
(define-fun .def_866 () Bool (and .def_863 .def_865))
(define-fun .def_869 () Bool (and .def_866 .def_868))
(define-fun .def_872 () Bool (and .def_869 .def_871))
(define-fun .def_874 () Bool (and .def_872 .def_873))
(define-fun .def_877 () Bool (and .def_874 .def_876))
(define-fun .def_879 () Bool (and .def_877 .def_878))
(define-fun .def_882 () Bool (and .def_879 .def_881))
(define-fun .def_889 () Bool (and .def_882 .def_888))
(define-fun .def_891 () Bool (and .def_889 .def_890))
(define-fun .def_893 () Bool (and .def_891 .def_892))
(define-fun .def_900 () Bool (and .def_893 .def_899))
(define-fun .def_902 () Bool (and .def_900 .def_901))
(define-fun .def_904 () Bool (and .def_902 .def_903))
(define-fun .def_906 () Bool (and .def_904 .def_905))
(define-fun .def_590 () Bool (= call_Sofar.Sofar call_Sofar.flby))
(define-fun .def_586 () Bool (= call__main_.call_controleur2.retard call__main_.call_controleur2.flby2))
(define-fun .def_583 () Bool (= call__main_.call_controleur2.avance call__main_.call_controleur2.flby))
(define-fun .def_577 () Int (* (- 1) call__main_.call_controleur2.diff))
(define-fun .def_563 () Int (* (- 1) call__main_.nS))
(define-fun .def_578 () Int (+ .def_563 .def_577))
(define-fun .def_579 () Int (+ call__main_.nB1 .def_578))
(define-fun .def_580 () Bool (= .def_579 0))
(define-fun .def_572 () Bool (= call__main_.call_controleur.retard call__main_.call_controleur.flby2))
(define-fun .def_569 () Bool (= call__main_.call_controleur.avance call__main_.call_controleur.flby))
(define-fun .def_562 () Int (* (- 1) call__main_.call_controleur.diff))
(define-fun .def_564 () Int (+ .def_563 .def_562))
(define-fun .def_565 () Int (+ call__main_.nB0 .def_564))
(define-fun .def_566 () Bool (= .def_565 0))
(define-fun .def_557 () Bool (= call__main_.call_hypothese2.c call__main_.call_hypothese2.flby2))
(define-fun .def_553 () Bool (= call__main_.call_hypothese2.ok call__main_.call_hypothese2.flby))
(define-fun .def_550 () Bool (= call__main_.call_hypothese.c call__main_.call_hypothese.flby2))
(define-fun .def_546 () Bool (= call__main_.call_hypothese.ok call__main_.call_hypothese.flby))
(define-fun .def_543 () Bool (= call__main_._H1_ call__main_.call_hypothese2.ok))
(define-fun .def_540 () Bool (= call__main_._H0_ call__main_.call_hypothese.ok))
(define-fun .def_537 () Bool (= call__main_.retard1 call__main_.call_controleur2.retard))
(define-fun .def_534 () Bool (= call__main_.retard0 call__main_.call_controleur.retard))
(define-fun .def_531 () Bool (= call__main_.avance1 call__main_.call_controleur2.avance))
(define-fun .def_528 () Bool (= call__main_.avance0 call__main_.call_controleur.avance))
(define-fun .def_525 () Bool (= call__main_.diff1 call__main_.call_controleur2.diff))
(define-fun .def_522 () Bool (= call__main_.diff0 call__main_.call_controleur.diff))
(define-fun .def_519 () Bool (= call__main_.nS call__main_.flby3))
(define-fun .def_516 () Bool (= call__main_.nB1 call__main_.flby2))
(define-fun .def_513 () Bool (= call__main_.nB0 call__main_.flby))
(define-fun .def_509 () Bool (and call__main_._H0_ call__main_._H1_))
(define-fun .def_510 () Bool (= call__main_.ast .def_509))
(define-fun .def_505 () Bool (= call__main_.ast ast))
(define-fun .def_501 () Bool (= retard1 call__main_.retard1))
(define-fun .def_497 () Bool (= retard0 call__main_.retard0))
(define-fun .def_493 () Bool (= avance1 call__main_.avance1))
(define-fun .def_489 () Bool (= avance0 call__main_.avance0))
(define-fun .def_485 () Bool (= diff1 call__main_.diff1))
(define-fun .def_481 () Bool (= diff0 call__main_.diff0))
(define-fun .def_477 () Bool (= nS call__main_.nS))
(define-fun .def_473 () Bool (= nB1 call__main_.nB1))
(define-fun .def_469 () Bool (= nB0 call__main_.nB0))
(define-fun .def_466 () Bool (= _OK_ flby))
(define-fun .def_470 () Bool (and .def_466 .def_469))
(define-fun .def_474 () Bool (and .def_470 .def_473))
(define-fun .def_478 () Bool (and .def_474 .def_477))
(define-fun .def_482 () Bool (and .def_478 .def_481))
(define-fun .def_486 () Bool (and .def_482 .def_485))
(define-fun .def_490 () Bool (and .def_486 .def_489))
(define-fun .def_494 () Bool (and .def_490 .def_493))
(define-fun .def_498 () Bool (and .def_494 .def_497))
(define-fun .def_502 () Bool (and .def_498 .def_501))
(define-fun .def_506 () Bool (and .def_502 .def_505))
(define-fun .def_511 () Bool (and .def_506 .def_510))
(define-fun .def_514 () Bool (and .def_511 .def_513))
(define-fun .def_517 () Bool (and .def_514 .def_516))
(define-fun .def_520 () Bool (and .def_517 .def_519))
(define-fun .def_523 () Bool (and .def_520 .def_522))
(define-fun .def_526 () Bool (and .def_523 .def_525))
(define-fun .def_529 () Bool (and .def_526 .def_528))
(define-fun .def_532 () Bool (and .def_529 .def_531))
(define-fun .def_535 () Bool (and .def_532 .def_534))
(define-fun .def_538 () Bool (and .def_535 .def_537))
(define-fun .def_541 () Bool (and .def_538 .def_540))
(define-fun .def_544 () Bool (and .def_541 .def_543))
(define-fun .def_547 () Bool (and .def_544 .def_546))
(define-fun .def_551 () Bool (and .def_547 .def_550))
(define-fun .def_554 () Bool (and .def_551 .def_553))
(define-fun .def_558 () Bool (and .def_554 .def_557))
(define-fun .def_567 () Bool (and .def_558 .def_566))
(define-fun .def_570 () Bool (and .def_567 .def_569))
(define-fun .def_573 () Bool (and .def_570 .def_572))
(define-fun .def_581 () Bool (and .def_573 .def_580))
(define-fun .def_584 () Bool (and .def_581 .def_583))
(define-fun .def_587 () Bool (and .def_584 .def_586))
(define-fun .def_591 () Bool (and .def_587 .def_590))
(define-fun .def_907 () Bool (and .def_591 .def_906))
(define-fun .def_797 () Bool (and call_Sofar.Sofar ast.next))
(define-fun .def_799 () Bool (= .def_797 call_Sofar.flby.next))
(define-fun .def_794 () Bool (= call__main_.call_controleur2.ite2.next call__main_.call_controleur2.flby2.next))
(define-fun .def_791 () Bool (= call__main_.call_controleur2.ite.next call__main_.call_controleur2.flby.next))
(define-fun .def_784 () Bool (<= 0 call__main_.call_controleur2.diff.next))
(define-fun .def_785 () Bool (not .def_784))
(define-fun .def_786 () Bool (= call__main_.call_controleur2.ite2.next .def_785))
(define-fun .def_783 () Bool (not call__main_.call_controleur2.retard))
(define-fun .def_787 () Bool (or .def_783 .def_786))
(define-fun .def_778 () Bool (<= call__main_.call_controleur2.diff.next (- 10)))
(define-fun .def_780 () Bool (= .def_778 call__main_.call_controleur2.ite2.next))
(define-fun .def_781 () Bool (or call__main_.call_controleur2.retard .def_780))
(define-fun .def_774 () Bool (<= 10 call__main_.call_controleur2.diff.next))
(define-fun .def_775 () Bool (= call__main_.call_controleur2.ite.next .def_774))
(define-fun .def_776 () Bool (or call__main_.call_controleur2.avance .def_775))
(define-fun .def_769 () Bool (<= call__main_.call_controleur2.diff.next 0))
(define-fun .def_770 () Bool (not .def_769))
(define-fun .def_772 () Bool (= .def_770 call__main_.call_controleur2.ite.next))
(define-fun .def_767 () Bool (not call__main_.call_controleur2.avance))
(define-fun .def_773 () Bool (or .def_767 .def_772))
(define-fun .def_777 () Bool (and .def_773 .def_776))
(define-fun .def_782 () Bool (and .def_777 .def_781))
(define-fun .def_788 () Bool (and .def_782 .def_787))
(define-fun .def_765 () Bool (= call__main_.call_controleur.ite2.next call__main_.call_controleur.flby2.next))
(define-fun .def_762 () Bool (= call__main_.call_controleur.ite.next call__main_.call_controleur.flby.next))
(define-fun .def_755 () Bool (<= 0 call__main_.call_controleur.diff.next))
(define-fun .def_756 () Bool (not .def_755))
(define-fun .def_757 () Bool (= call__main_.call_controleur.ite2.next .def_756))
(define-fun .def_754 () Bool (not call__main_.call_controleur.retard))
(define-fun .def_758 () Bool (or .def_754 .def_757))
(define-fun .def_749 () Bool (<= call__main_.call_controleur.diff.next (- 10)))
(define-fun .def_751 () Bool (= .def_749 call__main_.call_controleur.ite2.next))
(define-fun .def_752 () Bool (or call__main_.call_controleur.retard .def_751))
(define-fun .def_745 () Bool (<= 10 call__main_.call_controleur.diff.next))
(define-fun .def_746 () Bool (= call__main_.call_controleur.ite.next .def_745))
(define-fun .def_747 () Bool (or call__main_.call_controleur.avance .def_746))
(define-fun .def_740 () Bool (<= call__main_.call_controleur.diff.next 0))
(define-fun .def_741 () Bool (not .def_740))
(define-fun .def_743 () Bool (= .def_741 call__main_.call_controleur.ite.next))
(define-fun .def_738 () Bool (not call__main_.call_controleur.avance))
(define-fun .def_744 () Bool (or .def_738 .def_743))
(define-fun .def_748 () Bool (and .def_744 .def_747))
(define-fun .def_753 () Bool (and .def_748 .def_752))
(define-fun .def_759 () Bool (and .def_753 .def_758))
(define-fun .def_736 () Bool (= call__main_.call_hypothese2.ite4.next call__main_.call_hypothese2.flby2.next))
(define-fun .def_731 () Bool (and call__main_.call_hypothese2.ite2.next call__main_.call_hypothese2.ite.next))
(define-fun .def_733 () Bool (= .def_731 call__main_.call_hypothese2.flby.next))
(define-fun .def_622 () Bool (<= 9 call__main_.call_hypothese2.c))
(define-fun .def_729 () Bool (or call__main_.call_hypothese2.ite2.next .def_622))
(define-fun .def_727 () Bool (= call__main_.call_hypothese.ite4.next call__main_.call_hypothese.flby2.next))
(define-fun .def_722 () Bool (and call__main_.call_hypothese.ite2.next call__main_.call_hypothese.ite.next))
(define-fun .def_724 () Bool (= .def_722 call__main_.call_hypothese.flby.next))
(define-fun .def_644 () Bool (<= 9 call__main_.call_hypothese.c))
(define-fun .def_720 () Bool (or call__main_.call_hypothese.ite2.next .def_644))
(define-fun .def_718 () Bool (= call__main_.ite3.next call__main_.flby3.next))
(define-fun .def_715 () Bool (= call__main_.ite2.next call__main_.flby2.next))
(define-fun .def_712 () Bool (= call__main_.ite.next call__main_.flby.next))
(define-fun .def_709 () Bool (or call__main_.retard1 call__main_.call_hypothese2.ite.next))
(define-fun .def_707 () Bool (or call__main_.retard0 call__main_.call_hypothese.ite.next))
(define-fun .def_700 () Bool (and call__main_.avance1 call__main_.avance1.next))
(define-fun .def_703 () Bool (not .def_700))
(define-fun .def_702 () Bool (= call__main_.call_hypothese2.ite3.next call__main_.call_hypothese2.ite4.next))
(define-fun .def_704 () Bool (or .def_702 .def_703))
(define-fun .def_698 () Bool (= call__main_.call_hypothese2.ite4.next 0))
(define-fun .def_701 () Bool (or .def_698 .def_700))
(define-fun .def_705 () Bool (and .def_701 .def_704))
(define-fun .def_690 () Bool (and call__main_.avance0 call__main_.avance0.next))
(define-fun .def_693 () Bool (not .def_690))
(define-fun .def_692 () Bool (= call__main_.call_hypothese.ite3.next call__main_.call_hypothese.ite4.next))
(define-fun .def_694 () Bool (or .def_692 .def_693))
(define-fun .def_688 () Bool (= call__main_.call_hypothese.ite4.next 0))
(define-fun .def_691 () Bool (or .def_688 .def_690))
(define-fun .def_695 () Bool (and .def_691 .def_694))
(define-fun .def_681 () Bool (<= diff0 20))
(define-fun .def_680 () Bool (<= (- 10) diff0))
(define-fun .def_682 () Bool (and .def_680 .def_681))
(define-fun .def_679 () Bool (not call_Sofar.Sofar.next))
(define-fun .def_683 () Bool (or .def_679 .def_682))
(define-fun .def_685 () Bool (= .def_683 flby.next))
(define-fun .def_674 () Bool (= call__main_.nS call__main_.ite3.next))
(define-fun .def_675 () Bool (or param__S_.next .def_674))
(define-fun .def_669 () Int (* (- 1) call__main_.ite3.next))
(define-fun .def_670 () Int (+ call__main_.nS .def_669))
(define-fun .def_671 () Bool (= .def_670 (- 1)))
(define-fun .def_658 () Bool (not param__S_.next))
(define-fun .def_672 () Bool (or .def_658 .def_671))
(define-fun .def_665 () Bool (not call__main_.retard0))
(define-fun .def_664 () Bool (= .def_658 call__main_.call_hypothese.ite.next))
(define-fun .def_666 () Bool (or .def_664 .def_665))
(define-fun .def_661 () Bool (not call__main_.retard1))
(define-fun .def_660 () Bool (= .def_658 call__main_.call_hypothese2.ite.next))
(define-fun .def_662 () Bool (or .def_660 .def_661))
(define-fun .def_667 () Bool (and .def_662 .def_666))
(define-fun .def_673 () Bool (and .def_667 .def_672))
(define-fun .def_676 () Bool (and .def_673 .def_675))
(define-fun .def_651 () Bool (= call__main_.nB0 call__main_.ite.next))
(define-fun .def_654 () Bool (or param__B0_.next .def_651))
(define-fun .def_640 () Bool (not param__B0_.next))
(define-fun .def_652 () Bool (or .def_640 .def_651))
(define-fun .def_638 () Bool (= call__main_.call_hypothese.c call__main_.call_hypothese.ite3.next))
(define-fun .def_648 () Bool (or .def_638 param__B0_.next))
(define-fun .def_645 () Bool (not .def_644))
(define-fun .def_643 () Bool (= .def_640 call__main_.call_hypothese.ite2.next))
(define-fun .def_646 () Bool (or .def_643 .def_645))
(define-fun .def_641 () Bool (or .def_638 .def_640))
(define-fun .def_647 () Bool (and .def_641 .def_646))
(define-fun .def_649 () Bool (and .def_647 .def_648))
(define-fun .def_653 () Bool (and .def_649 .def_652))
(define-fun .def_655 () Bool (and .def_653 .def_654))
(define-fun .def_634 () Bool (= call__main_.nB1 call__main_.ite2.next))
(define-fun .def_635 () Bool (or param__B1_.next .def_634))
(define-fun .def_629 () Int (* (- 1) call__main_.ite2.next))
(define-fun .def_630 () Int (+ call__main_.nB1 .def_629))
(define-fun .def_631 () Bool (= .def_630 (- 1)))
(define-fun .def_618 () Bool (not param__B1_.next))
(define-fun .def_632 () Bool (or .def_618 .def_631))
(define-fun .def_616 () Bool (= call__main_.call_hypothese2.c call__main_.call_hypothese2.ite3.next))
(define-fun .def_626 () Bool (or .def_616 param__B1_.next))
(define-fun .def_623 () Bool (not .def_622))
(define-fun .def_621 () Bool (= .def_618 call__main_.call_hypothese2.ite2.next))
(define-fun .def_624 () Bool (or .def_621 .def_623))
(define-fun .def_619 () Bool (or .def_616 .def_618))
(define-fun .def_625 () Bool (and .def_619 .def_624))
(define-fun .def_627 () Bool (and .def_625 .def_626))
(define-fun .def_633 () Bool (and .def_627 .def_632))
(define-fun .def_636 () Bool (and .def_633 .def_635))
(define-fun .def_656 () Bool (and .def_636 .def_655))
(define-fun .def_677 () Bool (and .def_656 .def_676))
(define-fun .def_686 () Bool (and .def_677 .def_685))
(define-fun .def_696 () Bool (and .def_686 .def_695))
(define-fun .def_706 () Bool (and .def_696 .def_705))
(define-fun .def_708 () Bool (and .def_706 .def_707))
(define-fun .def_710 () Bool (and .def_708 .def_709))
(define-fun .def_713 () Bool (and .def_710 .def_712))
(define-fun .def_716 () Bool (and .def_713 .def_715))
(define-fun .def_719 () Bool (and .def_716 .def_718))
(define-fun .def_721 () Bool (and .def_719 .def_720))
(define-fun .def_725 () Bool (and .def_721 .def_724))
(define-fun .def_728 () Bool (and .def_725 .def_727))
(define-fun .def_730 () Bool (and .def_728 .def_729))
(define-fun .def_734 () Bool (and .def_730 .def_733))
(define-fun .def_737 () Bool (and .def_734 .def_736))
(define-fun .def_760 () Bool (and .def_737 .def_759))
(define-fun .def_763 () Bool (and .def_760 .def_762))
(define-fun .def_766 () Bool (and .def_763 .def_765))
(define-fun .def_789 () Bool (and .def_766 .def_788))
(define-fun .def_792 () Bool (and .def_789 .def_791))
(define-fun .def_795 () Bool (and .def_792 .def_794))
(define-fun .def_800 () Bool (and .def_795 .def_799))
(define-fun .def_908 () Bool (and .def_800 .def_907))
(assert .def_908)
